NAME          STRESS_06
OBJSENSE
 MIN
ROWS
 N  OBJ
 G  C1
 G  C2
 G  C3
 G  C4
 G  C5
 L  C6
 L  C7
 L  C8
 L  C9
 L  C10
 L  C11
 L  C12
 L  C13
 L  C14
COLUMNS
    MARK0000  'MARKER'                 'INTORG'
    X1        OBJ                      5
    X1        C1                       2
    X1        C2                       1
    X1        C6                       2
    X1        C10                      1
    X2        OBJ                      6
    X2        C1                       1
    X2        C3                       2
    X2        C6                       3
    X2        C7                       1
    X3        OBJ                      4
    X3        C2                       3
    X3        C4                       1
    X3        C6                       1
    X3        C8                       1
    X4        OBJ                      7
    X4        C1                       1
    X4        C4                       2
    X4        C7                       1
    X4        C11                      1
    X5        OBJ                      5
    X5        C2                       2
    X5        C3                       1
    X5        C6                       2
    X5        C9                       1
    X6        OBJ                      6
    X6        C3                       2
    X6        C5                       2
    X6        C6                       1
    X6        C12                      1
    Z1        OBJ                      8
    Z1        C1                       2
    Z1        C6                       1
    Z1        C10                      1
    Z2        OBJ                      7
    Z2        C2                       2
    Z2        C6                       1
    Z2        C11                      1
    Z3        OBJ                      9
    Z3        C3                       3
    Z3        C6                       1
    Z3        C12                      1
    Z4        OBJ                      8
    Z4        C4                       2
    Z4        C6                       1
    Z4        C13                      1
    Z5        OBJ                      7
    Z5        C5                       3
    Z5        C6                       1
    Z5        C14                      1
    MARK0001  'MARKER'                 'INTEND'
    Y1        OBJ                      1
    Y1        C1                       1
    Y1        C7                       1
    Y1        C8                       1
    Y2        OBJ                      2
    Y2        C2                       1
    Y2        C3                       1
    Y2        C9                       1
    Y2        C10                      1
    Y3        OBJ                      2
    Y3        C4                       1
    Y3        C5                       1
    Y3        C11                      1
    Y3        C12                      1
    Y4        OBJ                      1
    Y4        C5                       1
    Y4        C13                      1
    Y4        C14                      1
RHS
    RHS1      C1                      11
    RHS1      C2                      12
    RHS1      C3                      11
    RHS1      C4                      10
    RHS1      C5                       9
    RHS1      C6                      20
    RHS1      C7                       5
    RHS1      C8                       6
    RHS1      C9                       6
    RHS1      C10                      6
    RHS1      C11                      6
    RHS1      C12                      6
    RHS1      C13                      6
    RHS1      C14                      6
BOUNDS
 UP BND1      X1                       6
 UP BND1      X2                       6
 UP BND1      X3                       6
 UP BND1      X4                       6
 UP BND1      X5                       6
 UP BND1      X6                       6
 BV BND1      Z1
 BV BND1      Z2
 BV BND1      Z3
 BV BND1      Z4
 BV BND1      Z5
 UP BND1      Y1                       5
 UP BND1      Y2                       5
 UP BND1      Y3                       5
 UP BND1      Y4                       5
ENDATA